6 41 68
9 43 47 61
74 30
18 84 85
39 32
36 66 60
31 44
52 27
49 67 40 51 3 83
45 5 7
35 14
77 15 64
21 0
48 22 34 19 79
62 24
10 33
28 16
71 11 13 37
59 23 73 76 82
55 56
65 20
63 70
1 4 57
53 8
26 72 75
54 38 80
78 2 29 69
46 12 42
50 25
17 81 58
